0 1 1000 1000 1000 1 2 1000 1000 1000 1 2 1000 1000 1000 2 3 1000 1000 1000 1000 1000 1000 1000 1000 1 2 1000 1000 1000 2 3 1000 1000 1000 2 3 1000 1000 1000 3 4 1000 1000 1000 1000 1000 1000 
0 1 1000 1000 1000 1 2 1000 1000 1000 1 2 1000 1000 1000 2 3 1000 1000 1000 1000 1000 1000 1000 1000 1000 1000 1000 1000 1000 1000 1000 1000 1000 1000 1000 1000 1000 1000 1000 1000 1000 1000 1000 1000 1000 1000 1000 
0 1 1000 1000 1000 1 2 1000 1000 1000 1000 1000 1000 1000 1000 1000 1000 1000 1000 1000 1000 1000 1000 1000 1000 1000 1000 1000 1000 1000 1000 1000 1000 1000 1000 1000 1000 1000 1000 1000 1000 1000 1000 1000 1000 1000 1000 1000 
0 1 1000 1000 1000 1000 1000 1000 1000 1000 1000 1000 1000 1000 1000 1000 1000 1000 1000 1000 1000 1000 1000 1000 1000 1000 1000 1000 1000 1000 1000 1000 1000 1000 1000 1000 1000 1000 1000 1000 1000 1000 1000 1000 1000 1000 1000 1000 
